p cnf 122 296
-9 1 0
-9 -6 0
9 -1 6 0
-10 -5 0
-10 -9 0
10 5 9 0
-11 -4 0
-11 10 0
11 4 -10 0
-12 -3 0
-12 11 0
12 3 -11 0
-13 5 0
-13 9 0
13 -5 -9 0
-14 -10 0
-14 -13 0
14 10 13 0
-15 12 0
-15 14 0
15 -12 -14 0
-16 1 0
-16 -7 0
16 -1 7 0
-17 -5 0
-17 -16 0
17 5 16 0
-18 1 0
-18 12 0
18 -1 -12 0
-19 -6 0
-19 -18 0
19 6 18 0
-20 6 0
-20 18 0
20 -6 -18 0
-21 -19 0
-21 -20 0
21 19 20 0
-22 5 0
-22 16 0
22 -5 -16 0
-23 21 0
-23 -22 0
23 -21 22 0
-24 -17 0
-24 -23 0
24 17 23 0
-25 -4 0
-25 -24 0
25 4 24 0
-26 4 0
-26 24 0
26 -4 -24 0
-27 15 0
-27 -26 0
27 -15 26 0
-28 -25 0
-28 -27 0
28 25 27 0
-29 -3 0
-29 -28 0
29 3 28 0
-30 -25 0
-30 -26 0
30 25 26 0
-31 29 0
-31 30 0
31 -29 -30 0
-32 -15 0
-32 -31 0
32 15 31 0
-33 15 0
-33 31 0
33 -15 -31 0
-34 -32 0
-34 -33 0
34 32 33 0
-35 1 0
-35 -8 0
35 -1 8 0
-36 -5 0
-36 -35 0
36 5 35 0
-37 1 0
-37 29 0
37 -1 -29 0
-38 -7 0
-38 -37 0
38 7 37 0
-39 7 0
-39 37 0
39 -7 -37 0
-40 -38 0
-40 -39 0
40 38 39 0
-41 5 0
-41 35 0
41 -5 -35 0
-42 40 0
-42 -41 0
42 -40 41 0
-43 -36 0
-43 -42 0
43 36 42 0
-44 -4 0
-44 -43 0
44 4 43 0
-45 -17 0
-45 -22 0
45 17 22 0
-46 29 0
-46 45 0
46 -29 -45 0
-47 -21 0
-47 -46 0
47 21 46 0
-48 21 0
-48 46 0
48 -21 -46 0
-49 -47 0
-49 -48 0
49 47 48 0
-50 4 0
-50 43 0
50 -4 -43 0
-51 49 0
-51 -50 0
51 -49 50 0
-52 -44 0
-52 -51 0
52 44 51 0
-53 3 0
-53 52 0
53 -3 -52 0
-54 -3 0
-54 -52 0
54 3 52 0
-55 -53 0
-55 -54 0
55 53 54 0
-56 34 0
-56 -55 0
56 -34 55 0
-57 1 0
-57 -2 0
57 -1 2 0
-58 -5 0
-58 -57 0
58 5 57 0
-59 34 0
-59 -53 0
59 -34 53 0
-60 -54 0
-60 -59 0
60 54 59 0
-61 1 0
-61 -60 0
61 -1 60 0
-62 -8 0
-62 -61 0
62 8 61 0
-63 8 0
-63 61 0
63 -8 -61 0
-64 -62 0
-64 -63 0
64 62 63 0
-65 5 0
-65 57 0
65 -5 -57 0
-66 64 0
-66 -65 0
66 -64 65 0
-67 -58 0
-67 -66 0
67 58 66 0
-68 -4 0
-68 -67 0
68 4 67 0
-69 -36 0
-69 -41 0
69 36 41 0
-70 -60 0
-70 69 0
70 60 -69 0
-71 -40 0
-71 -70 0
71 40 70 0
-72 40 0
-72 70 0
72 -40 -70 0
-73 -71 0
-73 -72 0
73 71 72 0
-74 4 0
-74 67 0
74 -4 -67 0
-75 73 0
-75 -74 0
75 -73 74 0
-76 -68 0
-76 -75 0
76 68 75 0
-77 -3 0
-77 -76 0
77 3 76 0
-78 -44 0
-78 -50 0
78 44 50 0
-79 -60 0
-79 78 0
79 60 -78 0
-80 -49 0
-80 -79 0
80 49 79 0
-81 49 0
-81 79 0
81 -49 -79 0
-82 -80 0
-82 -81 0
82 80 81 0
-83 3 0
-83 76 0
83 -3 -76 0
-84 82 0
-84 -83 0
84 -82 83 0
-85 -77 0
-85 -84 0
85 77 84 0
-86 -56 0
-86 85 0
86 56 -85 0
-87 1 0
-87 -86 0
87 -1 86 0
88 2 87 0
89 -2 -87 0
-90 -88 0
-90 -89 0
91 -1 90 0
-92 -58 0
-92 -65 0
92 58 65 0
-93 -86 0
-93 92 0
93 86 -92 0
94 64 93 0
95 -64 -93 0
-96 -94 0
-96 -95 0
-97 -5 0
-97 96 0
98 -91 97 0
99 -5 96 0
-100 -98 0
-100 -99 0
-101 -68 0
-101 -74 0
101 68 74 0
-102 -86 0
-102 101 0
102 86 -101 0
103 73 102 0
104 -73 -102 0
-105 -103 0
-105 -104 0
-106 -4 0
-106 105 0
107 100 106 0
108 -4 105 0
-109 -107 0
-109 -108 0
-110 -77 0
-110 -83 0
110 77 83 0
-111 -86 0
-111 110 0
111 86 -110 0
112 82 111 0
113 -82 -111 0
-114 -112 0
-114 -113 0
-115 -3 0
-115 114 0
116 109 115 0
117 -3 114 0
-118 -116 0
-118 -117 0
119 3 4 0
120 5 -119 0
121 1 -120 0
-122 118 0
-122 -121 0
122 0
